n_res = 4;
rc = [ 20, 22, 24, 28 ];
n_tasks = 30;
d = [ 6, 2, 9, 8, 1, 4, 2, 1, 3, 2, 6, 5, 3, 1, 7, 2, 10, 3, 8, 6, 6, 9, 9, 1, 7, 2, 5, 9, 2, 2 ];
rr = [| 5, 1, 3, 2, 10, 9, 1, 1, 10, 1, 9, 7, 2, 8, 2, 7, 4, 8, 3, 3, 7, 7, 6, 8, 10, 7, 4, 4, 7, 5
      | 3, 2, 4, 8, 5, 1, 2, 4, 2, 2, 1, 10, 3, 5, 1, 3, 5, 8, 9, 2, 10, 10, 10, 3, 9, 4, 9, 5, 5, 1
      | 4, 10, 7, 3, 1, 1, 10, 6, 7, 2, 2, 4, 3, 2, 9, 10, 3, 3, 2, 6, 7, 2, 7, 7, 7, 5, 7, 8, 1, 5
      | 7, 5, 7, 10, 7, 7, 7, 2, 5, 8, 9, 4, 4, 8, 4, 6, 3, 10, 3, 8, 9, 9, 10, 1, 6, 5, 2, 10, 2, 4 |];
suc = [ { 28 },
       { 4, 5, 6 },
       { 13, 19, 20 },
       { 10, 24, 30 },
       { 15, 17, 18 },
       { 7, 8, 11 },
       { 19 },
       { 9 },
       { 14, 21 },
       { 12, 25 },
       { 17 },
       { 14 },
       { 21 },
       { 16 },
       { 23 },
       { 23 },
       { 20, 22 },
       { 19 },
       { 30 },
       { 30 },
       { 22 },
       { 24, 28 },
       { 27, 29 },
       { 25 },
       { 26 },
       { 29 },
       { 28 },
       {  },
       {  },
       {  } ];
